
Gurobi 11.0.3 (linux64) logging started Wed 20 Nov 2024 09:16:47 AM CST

Set parameter LogFile to value "/home/dlcole3/graph_abstraction/hierarchical_graphs/git_storage/CS1/HP_low_reserves/gurobi_logs/monolith/logfile14.log"
Set parameter NodefileStart to value 0.0005
Set parameter TimeLimit to value 7200

Gurobi 11.0.3 (linux64) logging started Wed 20 Nov 2024 09:17:30 AM CST

Set parameter LogFile to value "/home/dlcole3/graph_abstraction/hierarchical_graphs/git_storage/CS1/HP_low_reserves/gurobi_logs/monolith/logfile14.log"
Set parameter TimeLimit to value 7200
Gurobi Optimizer version 11.0.3 build v11.0.3rc0 (linux64 - "Ubuntu 18.04.3 LTS")

CPU model: Intel(R) Xeon(R) CPU E5-2698 v4 @ 2.20GHz, instruction set [SSE2|AVX|AVX2]
Thread count: 40 physical cores, 80 logical processors, using up to 20 threads

Optimize a model with 1105538 rows, 641709 columns and 4646693 nonzeros
Model fingerprint: 0xe76d8d9f
Variable types: 599982 continuous, 41727 integer (41727 binary)
Coefficient statistics:
  Matrix range     [5e-02, 2e+04]
  Objective range  [2e-01, 8e+04]
  Bounds range     [5e-02, 2e+05]
  RHS range        [2e-16, 7e+03]
Presolve removed 252367 rows and 115118 columns (presolve time = 5s) ...
Presolve removed 261613 rows and 116018 columns (presolve time = 10s) ...
Presolve removed 264961 rows and 117094 columns (presolve time = 15s) ...
Presolve removed 265368 rows and 117306 columns (presolve time = 20s) ...
Presolve removed 265462 rows and 117306 columns (presolve time = 25s) ...
Presolve removed 265482 rows and 117376 columns (presolve time = 30s) ...
Presolve removed 265482 rows and 117376 columns (presolve time = 35s) ...
Sparsify removed 122955 nonzeros (3%)
Presolve removed 265482 rows and 116526 columns
Presolve time: 37.04s
Presolved: 840056 rows, 525183 columns, 4502737 nonzeros
Variable types: 485116 continuous, 40067 integer (39996 binary)

Deterministic concurrent LP optimizer: primal simplex, dual simplex, and barrier
Showing barrier log only...

Root barrier log...

Elapsed ordering time = 5s
Elapsed ordering time = 10s
Elapsed ordering time = 36s
Elapsed ordering time = 42s
Elapsed ordering time = 45s
Elapsed ordering time = 50s
Elapsed ordering time = 55s
Elapsed ordering time = 62s
Elapsed ordering time = 66s
Elapsed ordering time = 70s
Elapsed ordering time = 75s
Elapsed ordering time = 80s
Elapsed ordering time = 88s
Elapsed ordering time = 91s
Elapsed ordering time = 95s
Elapsed ordering time = 100s
Elapsed ordering time = 105s
Ordering time: 110.04s

Barrier statistics:
 Dense cols : 323
 AA' NZ     : 4.823e+07
 Factor NZ  : 5.257e+08 (roughly 5.0 GB of memory)
 Factor Ops : 2.898e+12 (roughly 10 seconds per iteration)
 Threads    : 17

                  Objective                Residual
Iter       Primal          Dual         Primal    Dual     Compl     Time
   0  -2.17767802e+11 -1.80508109e+13  1.27e+04 2.04e+04  1.14e+08   172s
   1  -1.46864960e+11 -1.50856273e+13  9.32e+03 1.67e+05  8.09e+07   178s
   2  -1.01795862e+11 -1.08881156e+13  6.80e+03 6.96e+04  5.40e+07   184s
   3  -5.92366509e+10 -6.63828981e+12  4.11e+03 1.26e+04  3.00e+07   190s
   4  -9.94232389e+09 -2.50779147e+12  1.00e+03 3.41e+02  7.23e+06   197s
   5   2.29487320e+08 -1.02802719e+12  3.60e+02 2.40e+02  2.41e+06   203s
   6   4.59329957e+09 -5.09358548e+11  1.13e+02 3.70e+00  7.63e+05   211s
   7   5.81131633e+09 -2.32691080e+11  3.36e+01 6.02e-01  2.37e+05   222s
   8   5.50248929e+09 -1.20430209e+11  1.88e+01 2.32e-01  1.12e+05   232s
   9   3.56039897e+09 -4.09587717e+10  9.52e+00 3.42e-02  3.76e+04   242s
  10   1.34711036e+09 -1.23923790e+10  3.16e+00 5.04e-03  9.91e+03   252s
  11   4.03287110e+08 -5.67427090e+09  7.98e-01 1.89e-03  3.79e+03   262s
  12   1.93163282e+08 -2.18365588e+09  2.74e-01 6.68e-04  1.41e+03   271s
  13   9.40820546e+07 -8.14328357e+08  3.40e-02 2.41e-04  5.20e+02   280s
  14   7.69045209e+07 -3.52773509e+08  8.18e-03 1.07e-04  2.45e+02   289s
  15   7.07514677e+07 -2.31489023e+08  4.14e-03 7.48e-05  1.72e+02   299s
  16   6.73640000e+07 -1.27657876e+08  2.82e-03 4.69e-05  1.11e+02   308s
  17   6.24044814e+07 -8.57486710e+07  1.41e-03 3.59e-05  8.43e+01   318s
  18   5.76652460e+07 -3.16394341e+07  5.78e-04 2.14e-05  5.08e+01   329s
  19   5.42716821e+07  1.05205672e+07  2.78e-04 1.03e-05  2.49e+01   340s
  20   5.16899075e+07  2.69363975e+07  1.55e-04 5.81e-06  1.41e+01   350s
  21   5.05142536e+07  3.62211411e+07  1.18e-04 3.22e-06  8.13e+00   360s
  22   4.93937211e+07  3.98553506e+07  7.92e-05 2.11e-06  5.43e+00   370s
  23   4.86316906e+07  4.15697808e+07  5.58e-05 1.58e-06  4.02e+00   379s
  24   4.83499351e+07  4.29355138e+07  4.74e-05 1.15e-06  3.08e+00   388s
  25   4.81019375e+07  4.39033420e+07  4.03e-05 8.59e-07  2.39e+00   397s
  26   4.77502760e+07  4.46961934e+07  3.06e-05 5.99e-07  1.74e+00   408s
  27   4.74532994e+07  4.50103951e+07  2.28e-05 4.98e-07  1.39e+00   417s
  28   4.72365948e+07  4.54772371e+07  1.73e-05 3.40e-07  1.00e+00   427s
  29   4.70700558e+07  4.57417605e+07  1.32e-05 2.57e-07  7.56e-01   437s
  30   4.69499072e+07  4.59221431e+07  1.04e-05 1.95e-07  5.85e-01   447s
  31   4.68569343e+07  4.60321554e+07  8.31e-06 1.58e-07  4.69e-01   456s
  32   4.67950644e+07  4.61250120e+07  6.96e-06 1.22e-07  3.81e-01   466s
  33   4.67363463e+07  4.61931939e+07  5.67e-06 9.90e-08  3.09e-01   476s
  34   4.66777969e+07  4.62426088e+07  4.44e-06 8.22e-08  2.48e-01   486s
  35   4.66387838e+07  4.62706820e+07  3.60e-06 7.29e-08  2.09e-01   497s
  36   4.66004716e+07  4.63170060e+07  4.21e-06 5.58e-08  1.61e-01   509s
  37   4.65767246e+07  4.63562870e+07  3.67e-06 3.82e-08  1.25e-01   523s
  38   4.65622217e+07  4.63852069e+07  3.78e-06 2.73e-08  1.01e-01   538s
  39   4.65483797e+07  4.64004744e+07  3.83e-06 2.39e-08  8.42e-02   554s
  40   4.65392155e+07  4.64072772e+07  3.82e-06 2.31e-08  7.51e-02   571s
  41   4.65301960e+07  4.64103841e+07  3.98e-06 2.03e-08  6.82e-02   587s
  42   4.65223537e+07  4.64169431e+07  3.79e-06 1.85e-08  6.00e-02   603s
  43   4.65079831e+07  4.64275630e+07  3.29e-06 1.42e-08  4.58e-02   618s
  44   4.64998780e+07  4.64399689e+07  4.82e-06 1.10e-08  3.41e-02   634s
  45   4.64875049e+07  4.64470614e+07  5.78e-06 7.30e-09  2.30e-02   649s
  46   4.64842575e+07  4.64509260e+07  5.74e-06 5.36e-09  1.90e-02   665s
  47   4.64820568e+07  4.64520302e+07  5.39e-06 5.52e-09  1.71e-02   681s
  48   4.64799472e+07  4.64549371e+07  4.87e-06 6.51e-09  1.42e-02   697s
  49   4.64752931e+07  4.64573984e+07  3.43e-06 8.97e-09  1.02e-02   713s
  50   4.64733612e+07  4.64576681e+07  2.79e-06 1.43e-08  8.93e-03   727s
  51   4.64729296e+07  4.64591391e+07  2.67e-06 7.13e-09  7.85e-03   744s
  52   4.64701605e+07  4.64595857e+07  1.86e-06 4.94e-09  6.02e-03   761s
  53   4.64691753e+07  4.64616146e+07  1.54e-06 6.85e-09  4.30e-03   775s
  54   4.64677174e+07  4.64637566e+07  1.08e-06 6.18e-09  2.25e-03   791s
  55   4.64667835e+07  4.64644931e+07  1.03e-06 6.27e-09  1.30e-03   807s
  56   4.64663008e+07  4.64647122e+07  9.72e-07 7.74e-09  9.04e-04   822s
  57   4.64659900e+07  4.64649729e+07  7.55e-07 5.95e-09  5.79e-04   834s
  58   4.64659340e+07  4.64650351e+07  7.01e-07 9.32e-09  5.11e-04   846s
  59   4.64656117e+07  4.64652604e+07  3.32e-07 8.04e-09  2.00e-04   859s
  60   4.64654449e+07  4.64653275e+07  1.68e-07 1.09e-08  6.67e-05   873s
  61   4.64654301e+07  4.64653476e+07  1.28e-07 7.78e-09  4.69e-05   885s

Barrier solved model in 61 iterations and 885.23 seconds (994.10 work units)
Optimal objective 4.64654301e+07


Root crossover log...

  346544 DPushes remaining with DInf 1.8160878e-02               887s
  147616 DPushes remaining with DInf 0.0000000e+00               891s
  107139 DPushes remaining with DInf 0.0000000e+00               897s
   86771 DPushes remaining with DInf 0.0000000e+00               902s
   79095 DPushes remaining with DInf 0.0000000e+00               905s
   62054 DPushes remaining with DInf 0.0000000e+00               912s
   53894 DPushes remaining with DInf 0.0000000e+00               916s
   44226 DPushes remaining with DInf 0.0000000e+00               921s
   36134 DPushes remaining with DInf 0.0000000e+00               927s
   31855 DPushes remaining with DInf 0.0000000e+00               930s
   26519 DPushes remaining with DInf 0.0000000e+00               935s
   21291 DPushes remaining with DInf 0.0000000e+00               941s
   19088 DPushes remaining with DInf 0.0000000e+00               946s
   17137 DPushes remaining with DInf 0.0000000e+00               951s
   15658 DPushes remaining with DInf 0.0000000e+00               955s
   12763 DPushes remaining with DInf 0.0000000e+00               960s
    9711 DPushes remaining with DInf 0.0000000e+00               965s
    6734 DPushes remaining with DInf 0.0000000e+00               971s
    4863 DPushes remaining with DInf 0.0000000e+00               975s
    2470 DPushes remaining with DInf 0.0000000e+00               981s
     559 DPushes remaining with DInf 0.0000000e+00               985s
       0 DPushes remaining with DInf 0.0000000e+00               988s

  177067 PPushes remaining with PInf 2.3272288e-01               988s
   31373 PPushes remaining with PInf 2.1616484e-01               999s
   19266 PPushes remaining with PInf 2.0531540e-01              1000s
    2872 PPushes remaining with PInf 1.2266741e-01              1009s
       0 PPushes remaining with PInf 0.0000000e+00              1014s

  Push phase complete: Pinf 0.0000000e+00, Dinf 1.3358358e+06   1014s


Root simplex log...

Iteration    Objective       Primal Inf.    Dual Inf.      Time
  340086    4.6465412e+07   0.000000e+00   1.335836e+06   1015s
  340549    4.6465412e+07   0.000000e+00   2.268143e+02   1017s
  340825    4.6465412e+07   0.000000e+00   0.000000e+00   1020s
  340825    4.6465412e+07   0.000000e+00   0.000000e+00   1021s
Waiting for other threads to finish...        1088s
Waiting for other threads to finish...        1155s
Waiting for other threads to finish...        1222s
Waiting for other threads to finish...        1288s
Waiting for other threads to finish...        1355s
Waiting for other threads to finish...        1422s
Waiting for other threads to finish...        1488s
Waiting for other threads to finish...        1555s
Waiting for other threads to finish...        1621s
Waiting for other threads to finish...        1688s
Waiting for other threads to finish...        1754s
Waiting for other threads to finish...        1820s
Waiting for other threads to finish...        1887s
Waiting for other threads to finish...        1954s
Waiting for other threads to finish...        2020s
Waiting for other threads to finish...        2087s
Concurrent spin time: 1125.51s (can be avoided by choosing Method=3)

Solved with barrier

Root relaxation: objective 4.646541e+07, 340825 iterations, 2105.06 seconds (1019.23 work units)
Total elapsed time = 2156.91s (DegenMoves)
Total elapsed time = 2163.12s (DegenMoves)
Total elapsed time = 2167.89s (DegenMoves)

    Nodes    |    Current Node    |     Objective Bounds      |     Work
 Expl Unexpl |  Obj  Depth IntInf | Incumbent    BestBd   Gap | It/Node Time

     0     0 4.6465e+07    0  579          - 4.6465e+07      -     - 2195s
H    0     0                    4.780870e+07 4.6465e+07  2.81%     - 2314s
     0     0 4.6471e+07    0  428 4.7809e+07 4.6471e+07  2.80%     - 2587s
     0     0 4.6475e+07    0  385 4.7809e+07 4.6475e+07  2.79%     - 2724s
     0     0 4.6477e+07    0  370 4.7809e+07 4.6477e+07  2.79%     - 2785s
     0     0 4.6477e+07    0  371 4.7809e+07 4.6477e+07  2.79%     - 2809s
     0     0 4.6477e+07    0  450 4.7809e+07 4.6477e+07  2.78%     - 2828s
     0     0 4.6477e+07    0  441 4.7809e+07 4.6477e+07  2.78%     - 2843s
     0     0 4.6477e+07    0  439 4.7809e+07 4.6477e+07  2.78%     - 2849s
     0     0 4.6477e+07    0  440 4.7809e+07 4.6477e+07  2.78%     - 2860s
     0     0 4.6477e+07    0  440 4.7809e+07 4.6477e+07  2.78%     - 2864s
     0     0 4.6478e+07    0  419 4.7809e+07 4.6478e+07  2.78%     - 2934s
H    0     0                    4.743525e+07 4.6480e+07  2.01%     - 2995s
     0     0 4.6480e+07    0  428 4.7435e+07 4.6480e+07  2.01%     - 3034s
     0     0 4.6480e+07    0  403 4.7435e+07 4.6480e+07  2.01%     - 3051s
     0     0 4.6480e+07    0  487 4.7435e+07 4.6480e+07  2.01%     - 3064s
     0     0 4.6480e+07    0  418 4.7435e+07 4.6480e+07  2.01%     - 3073s
     0     0 4.6480e+07    0  429 4.7435e+07 4.6480e+07  2.01%     - 3078s
     0     0 4.6480e+07    0  514 4.7435e+07 4.6480e+07  2.01%     - 3129s
     0     0 4.6480e+07    0  619 4.7435e+07 4.6480e+07  2.01%     - 3196s
     0     0 4.6480e+07    0  533 4.7435e+07 4.6480e+07  2.01%     - 3202s
     0     0 4.6480e+07    0  626 4.7435e+07 4.6480e+07  2.01%     - 3252s
     0     0 4.6480e+07    0  596 4.7435e+07 4.6480e+07  2.01%     - 3318s
     0     0 4.6480e+07    0  618 4.7435e+07 4.6480e+07  2.01%     - 3351s
     0     0 4.6480e+07    0  516 4.7435e+07 4.6480e+07  2.01%     - 3451s
     0     0 4.6480e+07    0  518 4.7435e+07 4.6480e+07  2.01%     - 3478s
     0     0 4.6480e+07    0  518 4.7435e+07 4.6480e+07  2.01%     - 3496s
     0     0 4.6480e+07    0  512 4.7435e+07 4.6480e+07  2.01%     - 3549s
     0     2 4.6480e+07    0  511 4.7435e+07 4.6480e+07  2.01%     - 3632s
     1     4 4.6618e+07    1  269 4.7435e+07 4.6480e+07  2.01% 22375 3789s
     3     8 4.6639e+07    2  361 4.7435e+07 4.6484e+07  2.00% 10275 3934s
     7    16 4.6656e+07    3  290 4.7435e+07 4.6520e+07  1.93% 11527 4198s
    15    32 4.6691e+07    4  445 4.7435e+07 4.6523e+07  1.92% 12055 4444s
    31    52 4.6708e+07    5  371 4.7435e+07 4.6527e+07  1.91% 14847 6783s
H   36    52                    4.740983e+07 4.6527e+07  1.86% 22273 6783s
H   41    52                    4.697064e+07 4.6527e+07  0.94% 29650 6783s

Cutting planes:
  Gomory: 2
  Implied bound: 330
  MIR: 29
  Flow cover: 1263
  Relax-and-lift: 5

Explored 51 nodes (2161888 simplex iterations) in 6784.63 seconds (4983.88 work units)
Thread count was 20 (of 80 available processors)

Solution count 5: 4.69706e+07 4.69706e+07 4.74098e+07 ... 4.78087e+07

Optimal solution found (tolerance 1.00e-02)
Best objective 4.697064354405e+07, best bound 4.652720076736e+07, gap 0.9441%

User-callback calls 2068138, time in user-callback 8.32 sec
